04/23/2026 09:27:25 PM INFO lbbd_cp_v0_solver - setup_solver_logging: ================================================================================
04/23/2026 09:27:25 PM INFO lbbd_cp_v0_solver - setup_solver_logging: Logging started. Log file: D:\Project_Code\Paper\DP_LBBD_1\DP_lbbd\Algorithm\Results\lbbd_cp_v0\small\exp_3f_15j_seed1\log\exp_3f_15j_seed1_running.log
04/23/2026 09:27:25 PM INFO lbbd_cp_v0_solver - print: Feasible pairs: 25/45
04/23/2026 09:27:25 PM INFO lbbd_cp_v0_solver - print: [Master Modeling] Earliest completion lower bounds constraints: 1
04/23/2026 09:27:25 PM INFO lbbd_cp_v0_solver - print: [Master Modeling] Makespan-based delay bounds constraints: 10
04/23/2026 09:27:25 PM INFO lbbd_cp_v0_solver - print: 
04/23/2026 09:27:25 PM INFO lbbd_cp_v0_solver - print: [Model Statistics]
04/23/2026 09:27:25 PM INFO lbbd_cp_v0_solver - print:   Variables: 49
04/23/2026 09:27:25 PM INFO lbbd_cp_v0_solver - print:   Constraints: 26
04/23/2026 09:27:25 PM INFO lbbd_cp_v0_solver - print: 
04/23/2026 09:27:25 PM INFO lbbd_cp_v0_solver - print: [Preprocess Statistics]
04/23/2026 09:27:25 PM INFO lbbd_cp_v0_solver - print:   Infeasible eliminated: 0
04/23/2026 09:27:25 PM INFO lbbd_cp_v0_solver - print:   Unprofitable orders: 0
04/23/2026 09:27:25 PM INFO lbbd_cp_v0_solver - print:   Unprofitable assignments: 0
04/23/2026 09:27:25 PM INFO lbbd_cp_v0_solver - print:   Pairwise conflicts: 0
04/23/2026 09:27:25 PM INFO lbbd_cp_v0_solver - print:   Cluster conflicts: 0
04/23/2026 09:27:25 PM INFO lbbd_cp_v0_solver - print: 
04/23/2026 09:27:25 PM INFO lbbd_cp_v0_solver - print: [Master Enhancement Statistics]
04/23/2026 09:27:25 PM INFO lbbd_cp_v0_solver - print:   Capacity feasibility enhancement constrains: 0
04/23/2026 09:27:25 PM INFO lbbd_cp_v0_solver - print:   Lower bound delay cost enhancement constrains: 0
04/23/2026 09:27:25 PM INFO lbbd_cp_v0_solver - _callback: [Gurobi] Gurobi Optimizer version 10.0.1 build v10.0.1rc0 (win64)
04/23/2026 09:27:25 PM INFO lbbd_cp_v0_solver - _callback: [Gurobi] CPU model: Intel(R) Core(TM) Ultra 7 265KF, instruction set [SSE2|AVX|AVX2]
04/23/2026 09:27:25 PM INFO lbbd_cp_v0_solver - _callback: [Gurobi] Thread count: 20 physical cores, 20 logical processors, using up to 20 threads
04/23/2026 09:27:25 PM INFO lbbd_cp_v0_solver - _callback: [Gurobi] Optimize a model with 26 rows, 49 columns and 137 nonzeros
04/23/2026 09:27:25 PM INFO lbbd_cp_v0_solver - _callback: [Gurobi] Model fingerprint: 0x0e49a423
04/23/2026 09:27:25 PM INFO lbbd_cp_v0_solver - _callback: [Gurobi] Variable types: 9 continuous, 40 integer (40 binary)
04/23/2026 09:27:25 PM INFO lbbd_cp_v0_solver - _callback: [Gurobi] Coefficient statistics:
04/23/2026 09:27:25 PM INFO lbbd_cp_v0_solver - _callback: [Gurobi] Matrix range     [1e+00, 1e+03]
04/23/2026 09:27:25 PM INFO lbbd_cp_v0_solver - _callback: [Gurobi] Objective range  [1e+00, 3e+03]
04/23/2026 09:27:25 PM INFO lbbd_cp_v0_solver - _callback: [Gurobi] Bounds range     [1e+00, 1e+04]
04/23/2026 09:27:25 PM INFO lbbd_cp_v0_solver - _callback: [Gurobi] RHS range        [3e+03, 4e+03]
04/23/2026 09:27:25 PM INFO lbbd_cp_v0_solver - print: ***[Validated]*** obj=0.00, delay=0.00, bound=10000000000000000159028911097599180468360808563945281389781327557747838772170381060813469985856815104.00, gap=999999999999999977049513265245336628446842719924150006129995974731993452180789911303261294481511546880.00%, t=0.0s
04/23/2026 09:27:25 PM INFO lbbd_cp_v0_solver - _callback: [Gurobi] Found heuristic solution: objective -0.0000000
04/23/2026 09:27:25 PM INFO lbbd_cp_v0_solver - _callback: [Gurobi] Presolve removed 12 rows and 6 columns
04/23/2026 09:27:25 PM INFO lbbd_cp_v0_solver - _callback: [Gurobi] Presolve time: 0.00s
04/23/2026 09:27:25 PM INFO lbbd_cp_v0_solver - _callback: [Gurobi] Presolved: 14 rows, 43 columns, 66 nonzeros
04/23/2026 09:27:25 PM INFO lbbd_cp_v0_solver - _callback: [Gurobi] Variable types: 9 continuous, 34 integer (34 binary)
04/23/2026 09:27:25 PM INFO lbbd_cp_v0_solver - print: >>>Parallel subproblem time: 0.025s for 3 factories
04/23/2026 09:27:25 PM INFO lbbd_cp_v0_solver - print:  Added optimal optimality cut: factory=1, orders=[2, 3, 5, 11, 12], cost=2973.58, theta_est=0.00
04/23/2026 09:27:25 PM INFO lbbd_cp_v0_solver - print:  Added optimal optimality cut: factory=2, orders=[1, 4, 7, 8, 13], cost=444.07, theta_est=0.00
04/23/2026 09:27:25 PM INFO lbbd_cp_v0_solver - print:  Added optimal optimality cut: factory=3, orders=[6, 9, 14], cost=996.38, theta_est=0.00
04/23/2026 09:27:25 PM INFO lbbd_cp_v0_solver - print: ***[Validated]*** obj=2278.74, delay=4414.03, bound=13089.68, gap=474.43%, t=0.0s
04/23/2026 09:27:25 PM INFO lbbd_cp_v0_solver - _callback: [Gurobi] Root relaxation: objective 7.048411e+03, 14 iterations, 0.00 seconds (0.00 work units)
04/23/2026 09:27:25 PM INFO lbbd_cp_v0_solver - _callback: [Gurobi] Nodes    |    Current Node    |     Objective Bounds      |     Work
04/23/2026 09:27:25 PM INFO lbbd_cp_v0_solver - _callback: [Gurobi] Expl Unexpl |  Obj  Depth IntInf | Incumbent    BestBd   Gap | It/Node Time
04/23/2026 09:27:25 PM INFO lbbd_cp_v0_solver - _callback: [Gurobi] 0     0 7048.41092    0    4   -0.00000 7048.41092      -     -    0s
04/23/2026 09:27:25 PM INFO lbbd_cp_v0_solver - print: >>>Parallel subproblem time: 0.015s for 3 factories
04/23/2026 09:27:25 PM INFO lbbd_cp_v0_solver - print:  Added optimal optimality cut: factory=2, orders=[1, 4, 7, 10, 15], cost=457.15, theta_est=0.00
04/23/2026 09:27:25 PM INFO lbbd_cp_v0_solver - print:  Added optimal optimality cut: factory=3, orders=[6, 8, 9], cost=322.19, theta_est=0.00
04/23/2026 09:27:25 PM INFO lbbd_cp_v0_solver - print: ***[Validated]*** obj=3261.40, delay=3752.92, bound=7048.41, gap=116.12%, t=0.0s
04/23/2026 09:27:25 PM INFO lbbd_cp_v0_solver - print: >>>Parallel subproblem time: 0.016s for 3 factories
04/23/2026 09:27:25 PM INFO lbbd_cp_v0_solver - _callback: [Gurobi] H    0     0                    3261.3954154 7048.41092   116%     -    0s
04/23/2026 09:27:25 PM INFO lbbd_cp_v0_solver - print: >>>Parallel subproblem time: 0.060s for 3 factories
04/23/2026 09:27:25 PM INFO lbbd_cp_v0_solver - print:  Added optimal optimality cut: factory=1, orders=[2, 5, 11, 12], cost=1344.03, theta_est=0.00
04/23/2026 09:27:25 PM INFO lbbd_cp_v0_solver - print:  Added optimal optimality cut: factory=3, orders=[3, 6, 8, 9], cost=904.38, theta_est=322.19
04/23/2026 09:27:25 PM INFO lbbd_cp_v0_solver - print: ***[Validated]*** obj=4353.98, delay=2705.56, bound=7048.41, gap=61.88%, t=0.1s
04/23/2026 09:27:25 PM INFO lbbd_cp_v0_solver - print: >>>Parallel subproblem time: 0.017s for 3 factories
04/23/2026 09:27:25 PM INFO lbbd_cp_v0_solver - _callback: [Gurobi] H    0     0                    4353.9760452 7048.41092  61.9%     -    0s
04/23/2026 09:27:25 PM INFO lbbd_cp_v0_solver - print: >>>Parallel subproblem time: 0.015s for 3 factories
04/23/2026 09:27:25 PM INFO lbbd_cp_v0_solver - print:  Added optimal optimality cut: factory=2, orders=[1, 4, 7, 10, 13, 15], cost=1076.17, theta_est=457.15
04/23/2026 09:27:25 PM INFO lbbd_cp_v0_solver - print:  Added feasibility cut: factory=3, conflict orders=[3, 6, 8, 9, 14]
04/23/2026 09:27:25 PM INFO lbbd_cp_v0_solver - _callback: [Gurobi] 0     0 6850.24828    0   10 4353.97605 6850.24828  57.3%     -    0s
04/23/2026 09:27:25 PM INFO lbbd_cp_v0_solver - print: >>>Parallel subproblem time: 0.013s for 3 factories
04/23/2026 09:27:25 PM INFO lbbd_cp_v0_solver - print:  Added optimal optimality cut: factory=1, orders=[2, 3, 5, 12], cost=1341.87, theta_est=0.00
04/23/2026 09:27:25 PM INFO lbbd_cp_v0_solver - print:  Added optimal optimality cut: factory=2, orders=[1, 4, 7, 10, 13], cost=369.89, theta_est=0.00
04/23/2026 09:27:25 PM INFO lbbd_cp_v0_solver - print:  Added feasibility cut: factory=3, conflict orders=[8, 9, 11, 14]
04/23/2026 09:27:25 PM INFO lbbd_cp_v0_solver - _callback: [Gurobi] 0     0 6826.75377    0    7 4353.97605 6826.75377  56.8%     -    0s
04/23/2026 09:27:25 PM INFO lbbd_cp_v0_solver - _callback: [Gurobi] 0     0 6826.01892    0    7 4353.97605 6826.01892  56.8%     -    0s
04/23/2026 09:27:25 PM INFO lbbd_cp_v0_solver - _callback: [Gurobi] 0     0 6664.11974    0   14 4353.97605 6664.11974  53.1%     -    0s
04/23/2026 09:27:25 PM INFO lbbd_cp_v0_solver - print: >>>Parallel subproblem time: 0.014s for 3 factories
04/23/2026 09:27:25 PM INFO lbbd_cp_v0_solver - print:  Added optimal optimality cut: factory=1, orders=[2, 3, 11, 12], cost=1173.74, theta_est=0.00
04/23/2026 09:27:25 PM INFO lbbd_cp_v0_solver - print:  Added optimal optimality cut: factory=2, orders=[1, 7, 10, 13, 15], cost=253.85, theta_est=0.00
04/23/2026 09:27:25 PM INFO lbbd_cp_v0_solver - print:  Added optimal optimality cut: factory=3, orders=[8, 9, 14], cost=1025.50, theta_est=15.14
04/23/2026 09:27:25 PM INFO lbbd_cp_v0_solver - _callback: [Gurobi] 0     0 6648.14993    0    9 4353.97605 6648.14993  52.7%     -    0s
04/23/2026 09:27:25 PM INFO lbbd_cp_v0_solver - _callback: [Gurobi] 0     0 6513.03408    0   15 4353.97605 6513.03408  49.6%     -    0s
04/23/2026 09:27:26 PM INFO lbbd_cp_v0_solver - print: >>>Parallel subproblem time: 0.014s for 3 factories
04/23/2026 09:27:26 PM INFO lbbd_cp_v0_solver - print: ***[Validated]*** obj=4734.39, delay=1495.93, bound=6513.03, gap=37.57%, t=0.2s
04/23/2026 09:27:26 PM INFO lbbd_cp_v0_solver - _callback: [Gurobi] H    0     0                    4734.3892507 6513.03408  37.6%     -    0s
04/23/2026 09:27:26 PM INFO lbbd_cp_v0_solver - _callback: [Gurobi] 0     0 6512.49523    0   17 4734.38925 6512.49523  37.6%     -    0s
04/23/2026 09:27:26 PM INFO lbbd_cp_v0_solver - _callback: [Gurobi] 0     0 6511.62880    0   15 4734.38925 6511.62880  37.5%     -    0s
04/23/2026 09:27:26 PM INFO lbbd_cp_v0_solver - _callback: [Gurobi] 0     0 6508.87627    0   16 4734.38925 6508.87627  37.5%     -    0s
04/23/2026 09:27:26 PM INFO lbbd_cp_v0_solver - _callback: [Gurobi] 0     0 6508.08043    0   18 4734.38925 6508.08043  37.5%     -    0s
04/23/2026 09:27:26 PM INFO lbbd_cp_v0_solver - _callback: [Gurobi] 0     0 6507.29379    0   20 4734.38925 6507.29379  37.4%     -    0s
04/23/2026 09:27:26 PM INFO lbbd_cp_v0_solver - _callback: [Gurobi] 0     0 6505.66326    0   18 4734.38925 6505.66326  37.4%     -    0s
04/23/2026 09:27:26 PM INFO lbbd_cp_v0_solver - _callback: [Gurobi] 0     0 6500.25755    0   18 4734.38925 6500.25755  37.3%     -    0s
04/23/2026 09:27:26 PM INFO lbbd_cp_v0_solver - print: >>>Parallel subproblem time: 0.011s for 3 factories
04/23/2026 09:27:26 PM INFO lbbd_cp_v0_solver - print:  Added optimal optimality cut: factory=2, orders=[4, 7, 10, 13, 15], cost=391.12, theta_est=0.00
04/23/2026 09:27:26 PM INFO lbbd_cp_v0_solver - print:  Added optimal optimality cut: factory=3, orders=[6, 8, 14], cost=862.01, theta_est=0.00
04/23/2026 09:27:26 PM INFO lbbd_cp_v0_solver - print: >>>Parallel subproblem time: 0.015s for 3 factories
04/23/2026 09:27:26 PM INFO lbbd_cp_v0_solver - print:  Added optimal optimality cut: factory=3, orders=[6, 8, 9, 15], cost=678.17, theta_est=322.19
04/23/2026 09:27:26 PM INFO lbbd_cp_v0_solver - _callback: [Gurobi] 0     0 6498.69147    0   18 4734.38925 6498.69147  37.3%     -    0s
04/23/2026 09:27:26 PM INFO lbbd_cp_v0_solver - _callback: [Gurobi] 0     0 6498.68179    0   18 4734.38925 6498.68179  37.3%     -    0s
04/23/2026 09:27:26 PM INFO lbbd_cp_v0_solver - _callback: [Gurobi] 0     0 6498.55171    0   18 4734.38925 6498.55171  37.3%     -    0s
04/23/2026 09:27:26 PM INFO lbbd_cp_v0_solver - _callback: [Gurobi] 0     0 6495.39875    0   18 4734.38925 6495.39875  37.2%     -    0s
04/23/2026 09:27:26 PM INFO lbbd_cp_v0_solver - _callback: [Gurobi] 0     0 6495.34938    0   18 4734.38925 6495.34938  37.2%     -    0s
04/23/2026 09:27:26 PM INFO lbbd_cp_v0_solver - _callback: [Gurobi] 0     0 6495.34938    0   18 4734.38925 6495.34938  37.2%     -    0s
04/23/2026 09:27:26 PM INFO lbbd_cp_v0_solver - print: >>>Parallel subproblem time: 0.011s for 3 factories
04/23/2026 09:27:26 PM INFO lbbd_cp_v0_solver - print:  Added optimal optimality cut: factory=1, orders=[2, 11, 12], cost=321.34, theta_est=0.00
04/23/2026 09:27:26 PM INFO lbbd_cp_v0_solver - print:  Added optimal optimality cut: factory=3, orders=[3, 8, 9], cost=167.98, theta_est=0.00
04/23/2026 09:27:26 PM INFO lbbd_cp_v0_solver - print: ***[Validated]*** obj=5328.30, delay=743.18, bound=6495.35, gap=21.90%, t=0.2s
04/23/2026 09:27:26 PM INFO lbbd_cp_v0_solver - print: >>>Parallel subproblem time: 0.015s for 3 factories
04/23/2026 09:27:26 PM INFO lbbd_cp_v0_solver - print:  Added optimal optimality cut: factory=1, orders=[2, 5, 12], cost=178.70, theta_est=0.00
04/23/2026 09:27:26 PM INFO lbbd_cp_v0_solver - print:  Added optimal optimality cut: factory=3, orders=[3, 6, 8, 11], cost=1378.61, theta_est=0.00
04/23/2026 09:27:26 PM INFO lbbd_cp_v0_solver - print: >>>Parallel subproblem time: 0.011s for 3 factories
04/23/2026 09:27:26 PM INFO lbbd_cp_v0_solver - _callback: [Gurobi] H    0     2                    5328.2704987 6495.34938  21.9%     -    0s
04/23/2026 09:27:26 PM INFO lbbd_cp_v0_solver - _callback: [Gurobi] 0     2 6495.34938    0   18 5328.27050 6495.34938  21.9%     -    0s
04/23/2026 09:27:26 PM INFO lbbd_cp_v0_solver - print: >>>Parallel subproblem time: 0.015s for 3 factories
04/23/2026 09:27:26 PM INFO lbbd_cp_v0_solver - print:  Added optimal optimality cut: factory=2, orders=[1, 7, 8, 10, 15], cost=781.84, theta_est=91.84
04/23/2026 09:27:26 PM INFO lbbd_cp_v0_solver - print:  Added optimal optimality cut: factory=3, orders=[3, 6, 9, 11], cost=1350.37, theta_est=77.20
04/23/2026 09:27:26 PM INFO lbbd_cp_v0_solver - print: >>>Parallel subproblem time: 0.013s for 3 factories
04/23/2026 09:27:26 PM INFO lbbd_cp_v0_solver - print:  Added optimal optimality cut: factory=2, orders=[1, 4, 7, 8, 10], cost=892.78, theta_est=209.23
04/23/2026 09:27:26 PM INFO lbbd_cp_v0_solver - print:  Added optimal optimality cut: factory=3, orders=[3, 9, 14], cost=606.39, theta_est=0.00
04/23/2026 09:27:26 PM INFO lbbd_cp_v0_solver - print: >>>Parallel subproblem time: 0.014s for 3 factories
04/23/2026 09:27:26 PM INFO lbbd_cp_v0_solver - print:  Added optimal optimality cut: factory=1, orders=[2, 3, 12], cost=141.54, theta_est=0.00
04/23/2026 09:27:26 PM INFO lbbd_cp_v0_solver - print:  Added optimal optimality cut: factory=2, orders=[1, 7, 8, 10], cost=302.41, theta_est=0.00
04/23/2026 09:27:26 PM INFO lbbd_cp_v0_solver - print:  Added optimal optimality cut: factory=3, orders=[9, 11, 14], cost=1533.73, theta_est=0.00
04/23/2026 09:27:26 PM INFO lbbd_cp_v0_solver - print: >>>Parallel subproblem time: 0.017s for 3 factories
04/23/2026 09:27:26 PM INFO lbbd_cp_v0_solver - print:  Added optimal optimality cut: factory=3, orders=[3, 8, 9, 11], cost=1504.00, theta_est=233.09
04/23/2026 09:27:26 PM INFO lbbd_cp_v0_solver - print: >>>Parallel subproblem time: 0.011s for 3 factories
04/23/2026 09:27:26 PM INFO lbbd_cp_v0_solver - print:  Added optimal optimality cut: factory=1, orders=[2, 5, 10, 12], cost=2249.84, theta_est=178.70
04/23/2026 09:27:26 PM INFO lbbd_cp_v0_solver - print:  Added optimal optimality cut: factory=2, orders=[1, 4, 7, 8, 15], cost=527.51, theta_est=0.96
04/23/2026 09:27:26 PM INFO lbbd_cp_v0_solver - print: >>>Parallel subproblem time: 0.016s for 3 factories
04/23/2026 09:27:26 PM INFO lbbd_cp_v0_solver - print:  Added optimal optimality cut: factory=1, orders=[3, 5, 11, 12], cost=874.40, theta_est=0.00
04/23/2026 09:27:26 PM INFO lbbd_cp_v0_solver - print:  Added optimal optimality cut: factory=2, orders=[4, 7, 8, 10, 13], cost=829.65, theta_est=235.90
04/23/2026 09:27:26 PM INFO lbbd_cp_v0_solver - print:  Added optimal optimality cut: factory=3, orders=[9, 14], cost=115.79, theta_est=0.00
04/23/2026 09:27:26 PM INFO lbbd_cp_v0_solver - print: >>>Parallel subproblem time: 0.015s for 3 factories
04/23/2026 09:27:26 PM INFO lbbd_cp_v0_solver - print:  Added optimal optimality cut: factory=2, orders=[4, 7, 8, 10, 15], cost=913.08, theta_est=260.05
04/23/2026 09:27:26 PM INFO lbbd_cp_v0_solver - print:  Added optimal optimality cut: factory=3, orders=[6, 9, 11, 13], cost=632.32, theta_est=0.00
04/23/2026 09:27:26 PM INFO lbbd_cp_v0_solver - print: >>>Parallel subproblem time: 0.014s for 3 factories
04/23/2026 09:27:26 PM INFO lbbd_cp_v0_solver - print:  Added optimal optimality cut: factory=2, orders=[7, 8, 10, 13, 15], cost=718.70, theta_est=118.51
04/23/2026 09:27:26 PM INFO lbbd_cp_v0_solver - print: >>>Parallel subproblem time: 0.015s for 3 factories
04/23/2026 09:27:26 PM INFO lbbd_cp_v0_solver - print:  Added optimal optimality cut: factory=2, orders=[7, 8, 10, 13], cost=239.28, theta_est=0.00
04/23/2026 09:27:26 PM INFO lbbd_cp_v0_solver - print:  Added optimal optimality cut: factory=3, orders=[6, 9, 11, 15], cost=986.23, theta_est=0.00
04/23/2026 09:27:26 PM INFO lbbd_cp_v0_solver - print: >>>Parallel subproblem time: 0.015s for 3 factories
04/23/2026 09:27:26 PM INFO lbbd_cp_v0_solver - print:  Added optimal optimality cut: factory=3, orders=[8, 9, 11, 13], cost=811.34, theta_est=0.00
04/23/2026 09:27:26 PM INFO lbbd_cp_v0_solver - print: >>>Parallel subproblem time: 0.016s for 3 factories
04/23/2026 09:27:26 PM INFO lbbd_cp_v0_solver - print:  Added optimal optimality cut: factory=3, orders=[8, 11, 13, 14], cost=1393.29, theta_est=106.31
04/23/2026 09:27:26 PM INFO lbbd_cp_v0_solver - print: >>>Parallel subproblem time: 0.017s for 3 factories
04/23/2026 09:27:26 PM INFO lbbd_cp_v0_solver - print:  Added optimal optimality cut: factory=2, orders=[1, 4, 7, 8, 10, 15], cost=1829.36, theta_est=913.08
04/23/2026 09:27:26 PM INFO lbbd_cp_v0_solver - print:  Added optimal optimality cut: factory=3, orders=[3, 6, 9, 13], cost=292.51, theta_est=0.00
04/23/2026 09:27:26 PM INFO lbbd_cp_v0_solver - print: >>>Parallel subproblem time: 0.015s for 3 factories
04/23/2026 09:27:26 PM INFO lbbd_cp_v0_solver - print:  Added optimal optimality cut: factory=2, orders=[4, 7, 8, 13, 15], cost=464.37, theta_est=0.00
04/23/2026 09:27:26 PM INFO lbbd_cp_v0_solver - print: >>>Parallel subproblem time: 0.014s for 3 factories
04/23/2026 09:27:26 PM INFO lbbd_cp_v0_solver - print:  Added optimal optimality cut: factory=3, orders=[3, 8, 9, 13], cost=471.53, theta_est=167.98
04/23/2026 09:27:26 PM INFO lbbd_cp_v0_solver - print: >>>Parallel subproblem time: 0.016s for 3 factories
04/23/2026 09:27:26 PM INFO lbbd_cp_v0_solver - print:  Added optimal optimality cut: factory=2, orders=[4, 7, 8, 10], cost=582.53, theta_est=30.32
04/23/2026 09:27:26 PM INFO lbbd_cp_v0_solver - print:  Added optimal optimality cut: factory=3, orders=[3, 11, 14], cost=946.05, theta_est=0.00
04/23/2026 09:27:26 PM INFO lbbd_cp_v0_solver - print: >>>Parallel subproblem time: 0.014s for 3 factories
04/23/2026 09:27:26 PM INFO lbbd_cp_v0_solver - print:  Added optimal optimality cut: factory=1, orders=[5, 11, 12], cost=63.68, theta_est=0.00
04/23/2026 09:27:26 PM INFO lbbd_cp_v0_solver - print:  Added optimal optimality cut: factory=3, orders=[3, 8, 9, 15], cost=852.83, theta_est=167.98
04/23/2026 09:27:26 PM INFO lbbd_cp_v0_solver - print: >>>Parallel subproblem time: 0.012s for 3 factories
04/23/2026 09:27:26 PM INFO lbbd_cp_v0_solver - print:  Added optimal optimality cut: factory=1, orders=[3, 5, 12], cost=31.78, theta_est=0.00
04/23/2026 09:27:26 PM INFO lbbd_cp_v0_solver - print:  Added optimal optimality cut: factory=2, orders=[1, 7, 8, 10, 13], cost=698.41, theta_est=302.41
04/23/2026 09:27:26 PM INFO lbbd_cp_v0_solver - print:  Added optimal optimality cut: factory=3, orders=[6, 11, 14, 15], cost=1565.84, theta_est=0.00
04/23/2026 09:27:26 PM INFO lbbd_cp_v0_solver - print: >>>Parallel subproblem time: 0.015s for 3 factories
04/23/2026 09:27:26 PM INFO lbbd_cp_v0_solver - print:  Added optimal optimality cut: factory=3, orders=[3, 6, 8, 13], cost=294.18, theta_est=0.00
04/23/2026 09:27:26 PM INFO lbbd_cp_v0_solver - print: ***[Validated]*** obj=5344.99, delay=472.88, bound=6105.48, gap=14.23%, t=0.6s
04/23/2026 09:27:26 PM INFO lbbd_cp_v0_solver - print: >>>Parallel subproblem time: 0.016s for 3 factories
04/23/2026 09:27:26 PM INFO lbbd_cp_v0_solver - _callback: [Gurobi] H   94    74                    5344.9573266 6105.48150  14.2%   5.0    0s
04/23/2026 09:27:26 PM INFO lbbd_cp_v0_solver - print: >>>Parallel subproblem time: 0.016s for 3 factories
04/23/2026 09:27:26 PM INFO lbbd_cp_v0_solver - print: ***[Validated]*** obj=5370.47, delay=489.32, bound=6105.48, gap=13.69%, t=0.6s
04/23/2026 09:27:26 PM INFO lbbd_cp_v0_solver - _callback: [Gurobi] H   97    74                    5370.4694282 6105.48150  13.7%   5.0    0s
04/23/2026 09:27:26 PM INFO lbbd_cp_v0_solver - print: >>>Parallel subproblem time: 0.017s for 3 factories
04/23/2026 09:27:26 PM INFO lbbd_cp_v0_solver - print:  Added optimal optimality cut: factory=2, orders=[7, 8, 10, 15], cost=322.71, theta_est=-0.00
04/23/2026 09:27:26 PM INFO lbbd_cp_v0_solver - print:  Added optimal optimality cut: factory=3, orders=[6, 11, 13, 14], cost=1198.85, theta_est=0.00
04/23/2026 09:27:26 PM INFO lbbd_cp_v0_solver - print: >>>Parallel subproblem time: 0.014s for 3 factories
04/23/2026 09:27:26 PM INFO lbbd_cp_v0_solver - print:  Added optimal optimality cut: factory=3, orders=[3, 8, 13, 14], cost=1032.63, theta_est=46.23
04/23/2026 09:27:26 PM INFO lbbd_cp_v0_solver - print: >>>Parallel subproblem time: 0.015s for 3 factories
04/23/2026 09:27:26 PM INFO lbbd_cp_v0_solver - print:  Added optimal optimality cut: factory=1, orders=[2, 10, 11, 12], cost=2268.77, theta_est=321.34
04/23/2026 09:27:26 PM INFO lbbd_cp_v0_solver - print:  Added optimal optimality cut: factory=2, orders=[1, 7, 8, 13, 15], cost=333.13, theta_est=0.00
04/23/2026 09:27:26 PM INFO lbbd_cp_v0_solver - print: >>>Parallel subproblem time: 0.014s for 3 factories
04/23/2026 09:27:26 PM INFO lbbd_cp_v0_solver - print:  Added optimal optimality cut: factory=3, orders=[6, 8, 9, 13], cost=350.71, theta_est=322.19
04/23/2026 09:27:26 PM INFO lbbd_cp_v0_solver - print: ***[Validated]*** obj=5450.13, delay=529.41, bound=6105.48, gap=12.02%, t=0.7s
04/23/2026 09:27:26 PM INFO lbbd_cp_v0_solver - print: >>>Parallel subproblem time: 0.015s for 3 factories
04/23/2026 09:27:26 PM INFO lbbd_cp_v0_solver - _callback: [Gurobi] H  115    82                    5450.0980004 6105.48150  12.0%   4.7    0s
04/23/2026 09:27:26 PM INFO lbbd_cp_v0_solver - print: >>>Parallel subproblem time: 0.062s for 3 factories
04/23/2026 09:27:26 PM INFO lbbd_cp_v0_solver - print:  Added optimal optimality cut: factory=3, orders=[6, 8, 9, 11], cost=2040.05, theta_est=322.19
04/23/2026 09:27:26 PM INFO lbbd_cp_v0_solver - print: >>>Parallel subproblem time: 0.016s for 3 factories
04/23/2026 09:27:26 PM INFO lbbd_cp_v0_solver - print:  Added optimal optimality cut: factory=3, orders=[8, 11, 14], cost=1393.29, theta_est=0.00
04/23/2026 09:27:26 PM INFO lbbd_cp_v0_solver - print: >>>Parallel subproblem time: 0.012s for 3 factories
04/23/2026 09:27:26 PM INFO lbbd_cp_v0_solver - print:  Added optimal optimality cut: factory=3, orders=[8, 9, 11], cost=811.34, theta_est=0.00
04/23/2026 09:27:26 PM INFO lbbd_cp_v0_solver - print: >>>Parallel subproblem time: 0.014s for 3 factories
04/23/2026 09:27:26 PM INFO lbbd_cp_v0_solver - print:  Added optimal optimality cut: factory=1, orders=[5, 10, 11, 12], cost=1531.44, theta_est=63.68
04/23/2026 09:27:26 PM INFO lbbd_cp_v0_solver - print:  Added optimal optimality cut: factory=2, orders=[1, 4, 7, 13, 15], cost=204.87, theta_est=0.00
04/23/2026 09:27:26 PM INFO lbbd_cp_v0_solver - print:  Added optimal optimality cut: factory=3, orders=[3, 8, 14], cost=702.93, theta_est=0.00
04/23/2026 09:27:26 PM INFO lbbd_cp_v0_solver - print: >>>Parallel subproblem time: 0.017s for 3 factories
04/23/2026 09:27:26 PM INFO lbbd_cp_v0_solver - _callback: [Gurobi] *  186    81               8    5450.1280004 6105.48150  12.0%   3.9    0s
04/23/2026 09:27:26 PM INFO lbbd_cp_v0_solver - print: >>>Parallel subproblem time: 0.014s for 3 factories
04/23/2026 09:27:26 PM INFO lbbd_cp_v0_solver - print:  Added optimal optimality cut: factory=2, orders=[1, 4, 8, 10, 13], cost=770.58, theta_est=156.51
04/23/2026 09:27:26 PM INFO lbbd_cp_v0_solver - print:  Added optimal optimality cut: factory=3, orders=[3, 6, 9, 15], cost=673.81, theta_est=0.00
04/23/2026 09:27:26 PM INFO lbbd_cp_v0_solver - print: >>>Parallel subproblem time: 0.014s for 3 factories
04/23/2026 09:27:26 PM INFO lbbd_cp_v0_solver - print:  Added optimal optimality cut: factory=3, orders=[6, 8, 11, 15], cost=1009.07, theta_est=0.00
04/23/2026 09:27:26 PM INFO lbbd_cp_v0_solver - print: >>>Parallel subproblem time: 0.015s for 3 factories
04/23/2026 09:27:26 PM INFO lbbd_cp_v0_solver - print:  Added optimal optimality cut: factory=3, orders=[3, 8, 11, 13], cost=1013.76, theta_est=0.00
04/23/2026 09:27:26 PM INFO lbbd_cp_v0_solver - print: >>>Parallel subproblem time: 0.014s for 3 factories
04/23/2026 09:27:26 PM INFO lbbd_cp_v0_solver - print:  Added optimal optimality cut: factory=3, orders=[3, 6, 13, 14], cost=874.45, theta_est=0.00
04/23/2026 09:27:26 PM INFO lbbd_cp_v0_solver - print: >>>Parallel subproblem time: 0.013s for 3 factories
04/23/2026 09:27:26 PM INFO lbbd_cp_v0_solver - print: ***[Validated]*** obj=5586.11, delay=346.68, bound=6105.48, gap=9.30%, t=0.9s
04/23/2026 09:27:26 PM INFO lbbd_cp_v0_solver - _callback: [Gurobi] H  240    61                    5586.1096695 6105.48150  9.30%   3.9    0s
04/23/2026 09:27:26 PM INFO lbbd_cp_v0_solver - print: >>>Parallel subproblem time: 0.014s for 3 factories
04/23/2026 09:27:26 PM INFO lbbd_cp_v0_solver - print:  Added optimal optimality cut: factory=3, orders=[3, 8, 11, 15], cost=1682.05, theta_est=0.00
04/23/2026 09:27:26 PM INFO lbbd_cp_v0_solver - print: >>>Parallel subproblem time: 0.016s for 3 factories
04/23/2026 09:27:26 PM INFO lbbd_cp_v0_solver - print: ***[Validated]*** obj=5603.85, delay=346.68, bound=6105.48, gap=8.95%, t=0.9s
04/23/2026 09:27:26 PM INFO lbbd_cp_v0_solver - _callback: [Gurobi] *  258    62              11    5603.8534536 6105.48150  8.95%   3.8    0s
04/23/2026 09:27:26 PM INFO lbbd_cp_v0_solver - print: >>>Parallel subproblem time: 0.015s for 3 factories
04/23/2026 09:27:26 PM INFO lbbd_cp_v0_solver - print:  Added optimal optimality cut: factory=3, orders=[3, 6, 8, 15], cost=691.90, theta_est=0.00
04/23/2026 09:27:26 PM INFO lbbd_cp_v0_solver - print: >>>Parallel subproblem time: 0.014s for 3 factories
04/23/2026 09:27:26 PM INFO lbbd_cp_v0_solver - print: ***[Validated]*** obj=5627.11, delay=346.68, bound=5990.39, gap=6.46%, t=0.9s
04/23/2026 09:27:26 PM INFO lbbd_cp_v0_solver - _callback: [Gurobi] H  301    20                    5627.1134116 5990.39218  6.46%   3.6    0s
04/23/2026 09:27:26 PM INFO lbbd_cp_v0_solver - print: >>>Parallel subproblem time: 0.015s for 3 factories
04/23/2026 09:27:26 PM INFO lbbd_cp_v0_solver - print:  Added optimal optimality cut: factory=3, orders=[3, 8, 11], cost=415.37, theta_est=0.00
04/23/2026 09:27:26 PM INFO lbbd_cp_v0_solver - print: >>>Parallel subproblem time: 0.014s for 3 factories
04/23/2026 09:27:26 PM INFO lbbd_cp_v0_solver - print:  Added optimal optimality cut: factory=3, orders=[6, 8, 11, 13], cost=648.62, theta_est=0.00
04/23/2026 09:27:26 PM INFO lbbd_cp_v0_solver - _callback: [Gurobi] Cutting planes:
04/23/2026 09:27:26 PM INFO lbbd_cp_v0_solver - _callback: [Gurobi] Gomory: 1
04/23/2026 09:27:26 PM INFO lbbd_cp_v0_solver - _callback: [Gurobi] MIR: 18
04/23/2026 09:27:26 PM INFO lbbd_cp_v0_solver - _callback: [Gurobi] Lazy constraints: 75
04/23/2026 09:27:26 PM INFO lbbd_cp_v0_solver - _callback: [Gurobi] Explored 364 nodes (1281 simplex iterations) in 0.98 seconds (0.01 work units)
04/23/2026 09:27:26 PM INFO lbbd_cp_v0_solver - _callback: [Gurobi] Thread count was 20 (of 20 available processors)
04/23/2026 09:27:26 PM INFO lbbd_cp_v0_solver - _callback: [Gurobi] Solution count 10: 5627.11 5603.85 5586.11 ... 3261.4
04/23/2026 09:27:26 PM INFO lbbd_cp_v0_solver - _callback: [Gurobi] Optimal solution found (tolerance 1.00e-04)
04/23/2026 09:27:26 PM INFO lbbd_cp_v0_solver - _callback: [Gurobi] Best objective 5.627113411587e+03, best bound 5.627113411587e+03, gap 0.0000%
04/23/2026 09:27:26 PM INFO lbbd_cp_v0_solver - _callback: [Gurobi] User-callback calls 1064, time in user-callback 0.93 sec
04/23/2026 09:27:26 PM INFO lbbd_cp_v0_solver - print: 
04/23/2026 09:27:26 PM INFO lbbd_cp_v0_solver - print: ============================================================
04/23/2026 09:27:26 PM INFO lbbd_cp_v0_solver - print: Branch-and-Check LBBD Summary
04/23/2026 09:27:26 PM INFO lbbd_cp_v0_solver - print: ============================================================
04/23/2026 09:27:26 PM INFO lbbd_cp_v0_solver - print: Status: OPTIMAL
04/23/2026 09:27:26 PM INFO lbbd_cp_v0_solver - print: Runtime: 0.98s
04/23/2026 09:27:26 PM INFO lbbd_cp_v0_solver - print: Iterations: 56
04/23/2026 09:27:26 PM INFO lbbd_cp_v0_solver - print: Initial UB: 13089.68
04/23/2026 09:27:26 PM INFO lbbd_cp_v0_solver - print: Module times (s): preprocess=0.000, enhancement=0.004, modeling=0.001, solving=0.975
04/23/2026 09:27:26 PM INFO lbbd_cp_v0_solver - print: Master time: 0.073s
04/23/2026 09:27:26 PM INFO lbbd_cp_v0_solver - print: Average subproblem time: 0.0140s
04/23/2026 09:27:26 PM INFO lbbd_cp_v0_solver - print: Lazy cuts added: 75
04/23/2026 09:27:26 PM INFO lbbd_cp_v0_solver - print:   - feasibility cuts: 2
04/23/2026 09:27:26 PM INFO lbbd_cp_v0_solver - print:   - optimality cuts: 73
04/23/2026 09:27:26 PM INFO lbbd_cp_v0_solver - print: Subproblems solved: 165
04/23/2026 09:27:26 PM INFO lbbd_cp_v0_solver - print: Subproblem time total: 2.30s
04/23/2026 09:27:26 PM INFO lbbd_cp_v0_solver - print: Subproblem time avg: 0.0140s
04/23/2026 09:27:26 PM INFO lbbd_cp_v0_solver - print: Best objective: 5627.11
04/23/2026 09:27:26 PM INFO lbbd_cp_v0_solver - print: Best bound: 5627.11
04/23/2026 09:27:26 PM INFO lbbd_cp_v0_solver - print: Final MIP gap: 0.00%
04/23/2026 09:27:26 PM INFO lbbd_cp_v0_solver - print: ============================================================
04/23/2026 09:27:26 PM INFO lbbd_cp_v0_solver - print: 
04/23/2026 09:27:26 PM INFO lbbd_cp_v0_solver - print: ------------------------------------------------------------
04/23/2026 09:27:26 PM INFO lbbd_cp_v0_solver - print: Subproblem Diagnostics
04/23/2026 09:27:26 PM INFO lbbd_cp_v0_solver - print: ------------------------------------------------------------
04/23/2026 09:27:26 PM INFO lbbd_cp_v0_solver - print: Total subproblems: 165
04/23/2026 09:27:26 PM INFO lbbd_cp_v0_solver - print:   infeasible: 2 (1.21%)
04/23/2026 09:27:26 PM INFO lbbd_cp_v0_solver - print:   optimal: 163 (98.79%)
04/23/2026 09:27:26 PM INFO lbbd_cp_v0_solver - print: Avg subproblem gap: 0.00% (n=133)
04/23/2026 09:27:26 PM INFO lbbd_cp_v0_solver - print: Avg subproblem objective: 539.471 (n=163)
04/23/2026 09:27:26 PM INFO lbbd_cp_v0_solver - print: Avg subproblem bound: 539.471 (n=163)
04/23/2026 09:27:26 PM INFO lbbd_cp_v0_solver - print: Avg (obj - bound) / |obj|: 0.00%
04/23/2026 09:27:26 PM INFO lbbd_cp_v0_solver - print: ------------------------------------------------------------
